
Value of objective function: 12151.57894737

Actual values of the variables:
x01                             7
x02                             3
x12                       12.9474
x13                       3.05263
x21                             8
a                               1

Value of objective function: 12151.57894737

Actual values of the variables:
x01                             7
x02                             3
x12                       12.9474
x13                       3.05263
x21                             8
a                               1
